14 34 78
1 2 3
1 3 5
1 11 4
1 12 1
2 3 5
2 6 5
2 12 4
2 13 4
3 5 1
3 7 2
3 9 1
3 11 1
3 14 2
4 6 5
4 7 1
4 12 2
4 13 1
4 14 2
6 7 1
6 9 3
6 11 3
6 13 1
6 14 1
7 8 5
7 9 5
7 14 4
8 10 5
8 11 3
8 14 4
10 11 4
11 12 4
11 13 3
12 13 2
12 14 2
